Route #1: 1 33 51 19 33 26 33 41 13 1 
Route #2: 1 7 34 2 64 17 4 45 18 1 
Route #3: 1 33 10 40 11 32 11 59 27 1 
Route #4: 1 6 38 21 61 37 48 6 1 
Route #5: 1 31 29 62 29 22 49 6 46 5 1 
Route #6: 1 2 42 57 24 50 4 52 1 
Route #7: 1 3 29 63 23 2 43 44 2 1 
Route #8: 1 35 47 9 53 55 53 8 1 
Route #9: 1 28 53 14 6 16 58 6 30 1 
Route #10: 1 36 54 20 15 54 12 39 11 1 
Cost 928.0
